n = 36;
lu = [|428, 461
      |-1025, -880
      |204, 601
      |-1118, 239
      |-600, 1194
      |115, 1123
      |-203, 47
      |53, 1252
      |-36, 641
      |345, 1091
      |-382, 1214
      |-951, 866
      |-720, 704
      |492, 861
      |-1249, -287
      |237, 262
      |901, 1221
      |-1196, 770
      |-698, 651
      |-877, -272
      |-828, -772
      |-941, 576
      |-816, 319
      |-548, -95
      |161, 561
      |419, 704
      |-216, -119
      |-564, 479
      |-625, -215
      |-975, 231
      |-317, 846
      |-280, 1029
      |-1179, -50
      |-695, 455
      |-316, 195
      |-1173, -1023|];
